dimacs_data/cellphone.dimacs
c 1 software
c 2 calls
c 3 screen
c 4 _r_2_5
c 5 basic
c 6 color
c 7 highRes
c 8 media
c 9 _r_3_9
c 10 camera
c 11 mp3
c 12 gps
p cnf 12 24
1 0
-1 2 0
1 -2 0
-1 3 0
1 -3 0
-3 4 0
3 -4 0
-5 4 0
-6 4 0
-7 4 0
-4 5 6 7 0
-5 -6 -7 0
-5 -6 7 0
-5 6 -7 0
5 -6 -7 0
1 -8 0
-8 9 0
8 -9 0
-10 9 0
-11 9 0
-9 10 11 0
1 -12 0
7 -10 0
-12 -5 0
