optimal_in_his/cellphone.txt
~~~
0.0 6.0 3.0 9.0 49.0
0.0 2.0 5.0 15.0 103.0
0.0 3.0 3.0 24.0 92.0
0.0 7.0 2.0 5.0 45.0
0.0 3.0 4.0 15.0 88.0
0.0 6.0 2.0 18.0 53.0
0.0 4.0 3.0 11.0 84.0
0.0 7.0 3.0 4.0 41.0
0.0 3.0 5.0 10.0 95.0
0.0 4.0 4.0 10.0 80.0
~~~
1
